NAME : netgen20-5-11
COMMENT : Generated using the function generateClusteredNetwork from the R-package netgen (Bossek,2015) - Number of clusters: 5
TYPE : TSP
DIMENSION : 20
EDGE_WEIGHT_TYPE : EUC_2D
NODE_COORD_SECTION
1 1.1059458522 63.0194641462
2 2.0678157187 48.6739220371
3 1.4309396378 63.2471779725
4 15.4077017669 44.0043628799
5 51.8476460297 23.7350904415
6 44.5675193557 21.7927257475
7 51.4867062697 23.7250821472
8 50.4047092296 23.5054570486
9 55.0144176707 87.9369054266
10 63.336905442 86.6713489799
11 55.5589715933 88.5800454757
12 58.2573392846 82.6567219317
13 89.59651702 45.1478869457
14 88.2554014836 52.7291979054
15 84.4740676826 55.0607337444
16 89.2524490637 45.2232990213
17 23.6641382071 2.7577166935
18 30.2737813447 5.4051718763
19 24.8384026583 9.7652008425
20 22.6685670986 0.1279938453
EOF
